(set-option :print-success true)
(set-option :produce-assignments true)
(set-option :produce-abducts true)
(set-option :incremental true)
(set-logic QF_UFLIA)
(set-option :sygus-core-connective false)
(declare-sort Tindex_0 0)
(declare-fun hash (Int Int ) Tindex_0)
(declare-fun bb () Int)
(declare-fun a () Int)
(declare-fun topos (Int ) Int)
(declare-fun aa () Int)
(declare-fun b () Int)
;(assert (= (* 1 bb) bb))
(assert (and (= a (* 1 aa)) (= b (* 1 bb))))
;(assert (= (* 1 aa) aa))
(assert (=> (and (= a aa) (= b bb)) (= (hash aa (topos bb)) (hash a b)))) ;missing hyp, will make smt work
(assert (not (= (hash aa (topos bb)) (hash a b))))
(check-sat)
;(get-abduct A (= (hash aa (topos bb)) (hash a b)))
;(get-abduct-next)
;(get-abduct-next)
